c clasp version 2.1.1
c Reading from pb_400_08.cnf
c Solving...
s UNKNOWN

c TIME LIMIT    : 1
c Models        : 0+    
c Time          : 99999.961s (Solving: 99997.76s 1st Model: 0.00s Unsat: 0.00s)
c CPU Time      : 99838.130s
c Choices       : 159413269
c Conflicts     : 110848081
c Restarts      : 32     (Average: 3464002.53 Last: 110448421)

c Variables     : 587502 (Eliminated:    6 Frozen:    0)
c Constraints   : 693441 (Binary: 57.9% Ternary: 40.9% Other:  1.2%)
c Lemmas        : 110848080 (Binary:  0.0% Ternary:  0.0% Other:100.0%)
c   Conflict    : 110848080 (Average Length: 835.3) 
c   Loop        : 0      (Average Length: 0.0) 
c   Other       : 0      (Average Length: 0.0)
c   Deleted     : 110744900
